speck_results/milp_results/speck_block_cipher_p64_k128_o64/key_equal_plaintext_greater/round_{11..11}/result_3.txt
% Generated FlatZinc statistics:
%%%mzn-stat: paths=0
%%%mzn-stat: method="satisfy"
%%%mzn-stat: flatTime=0.0358862
%%%mzn-stat-end

% time elapsed: 0.05 s
----------
==========
% time elapsed: 0.05 s
%%%mzn-stat: nSolutions=1
%%%mzn-stat-end
